c Nemesis formula in 6CNF in accordance with DIMACS CNF format:
c    Filename: MCNC/c2670/c2670.tdl
c    Formula number 121
c    4846 variables (range: 2 - 4847)
c    1619 clauses
c
c p cnf 4847 1619
p cnf 694 1619
25	0
694	0
25	0
-26	0
24	0
107	-108	0
-107	108	0
24	26	0
-24	-26	0
-687	107	0
-687	24	0
107	24	0
-107	-24	0
687	-108	0
-687	108	0
687	-26	0
-687	26	0
108	-26	0
-108	26	0
113	116	0
-117	-689	0
115	-689	0
117	-690	0
-115	-690	0
-690	688	0
-689	688	0
628	115	0
-628	-115	0
-629	116	0
630	117	0
-630	-117	0
632	628	0
-632	-628	0
-633	629	0
634	630	0
-634	-630	0
485	-632	0
-485	632	0
485	-635	0
-485	635	0
486	-633	0
486	-636	0
487	-634	0
-487	634	0
487	-637	0
-487	637	0
-423	-485	0
-488	-485	0
-491	-485	0
-492	-485	0
-489	486	0
-489	-492	0
-489	-491	0
-489	-423	0
-423	-487	0
-490	-487	0
-491	-487	0
-492	-487	0
-431	-685	0
494	-685	0
431	-686	0
-494	-686	0
-686	492	0
-685	492	0
50	-493	0
-50	493	0
50	-494	0
-50	494	0
50	-657	0
-50	657	0
50	-667	0
-50	667	0
272	-434	0
-272	434	0
272	-435	0
-272	435	0
272	-553	0
-272	553	0
273	272	0
266	272	0
269	272	0
274	272	0
277	274	0
110	274	0
278	274	0
90	-126	0
-90	126	0
90	-127	0
-90	127	0
90	-132	0
-90	132	0
90	-134	0
-90	134	0
90	-140	0
-90	140	0
90	-147	0
-90	147	0
90	-150	0
-90	150	0
90	-155	0
-90	155	0
90	-197	0
-90	197	0
90	-208	0
-90	208	0
90	-268	0
-90	268	0
90	-278	0
-90	278	0
90	-283	0
-90	283	0
90	-285	0
-90	285	0
90	-289	0
-90	289	0
90	-330	0
-90	330	0
90	-334	0
-90	334	0
90	-338	0
-90	338	0
90	-357	0
-90	357	0
90	-361	0
-90	361	0
90	-419	0
-90	419	0
123	-124	0
-123	124	0
123	-125	0
-123	125	0
123	-129	0
-123	129	0
123	-131	0
-123	131	0
123	-144	0
-123	144	0
123	-146	0
-123	146	0
123	-200	0
-123	200	0
123	-203	0
-123	203	0
123	-207	0
-123	207	0
123	-210	0
-123	210	0
123	-275	0
-123	275	0
123	-277	0
-123	277	0
123	-280	0
-123	280	0
123	-282	0
-123	282	0
123	-358	0
-123	358	0
123	-360	0
-123	360	0
123	-418	0
-123	418	0
123	-421	0
-123	421	0
362	123	0
-362	-123	0
44	-135	0
-44	135	0
44	-136	0
-44	136	0
44	-139	0
-44	139	0
44	-141	0
-44	141	0
44	-149	0
-44	149	0
44	-151	0
-44	151	0
44	-154	0
-44	154	0
44	-156	0
-44	156	0
44	-196	0
-44	196	0
44	-198	0
-44	198	0
44	-214	0
-44	214	0
44	-267	0
-44	267	0
44	-270	0
-44	270	0
44	-284	0
-44	284	0
44	-286	0
-44	286	0
44	-288	0
-44	288	0
44	-331	0
-44	331	0
44	-333	0
-44	333	0
44	-335	0
-44	335	0
44	-337	0
-44	337	0
44	-353	0
-44	353	0
44	-356	0
-44	356	0
44	-362	0
-44	362	0
270	269	0
30	269	0
271	269	0
128	-137	0
-128	137	0
128	-138	0
-128	138	0
128	-142	0
-128	142	0
128	-145	0
-128	145	0
128	-152	0
-128	152	0
128	-157	0
-128	157	0
128	-199	0
-128	199	0
128	-201	0
-128	201	0
128	-204	0
-128	204	0
128	-211	0
-128	211	0
128	-215	0
-128	215	0
128	-271	0
-128	271	0
128	-276	0
-128	276	0
128	-281	0
-128	281	0
128	-287	0
-128	287	0
128	-332	0
-128	332	0
128	-336	0
-128	336	0
128	-354	0
-128	354	0
128	-359	0
-128	359	0
128	-422	0
-128	422	0
338	128	0
-338	-128	0
267	266	0
79	266	0
268	266	0
275	273	0
109	273	0
276	273	0
77	-347	0
-77	347	0
77	-348	0
-77	348	0
77	-404	0
-77	404	0
77	-409	0
-77	409	0
77	-415	0
-77	415	0
77	-425	0
-77	425	0
77	-429	0
-77	429	0
77	-433	0
-77	433	0
77	-438	0
-77	438	0
341	-345	0
-341	345	0
341	-346	0
-341	346	0
341	-408	0
-341	408	0
341	-414	0
-341	414	0
341	-424	0
-341	424	0
341	-428	0
-341	428	0
341	-432	0
-341	432	0
341	-437	0
-341	437	0
404	341	0
-404	-341	0
474	491	0
-474	-491	0
-475	-474	0
-476	-474	0
622	476	0
-550	-622	0
-436	-679	0
650	-679	0
436	-680	0
-650	-680	0
-680	550	0
-679	550	0
23	-650	0
-23	650	0
23	-651	0
-23	651	0
23	-654	0
-23	654	0
23	-668	0
-23	668	0
410	-439	0
-410	439	0
410	-440	0
-410	440	0
410	-496	0
-410	496	0
410	-552	0
-410	552	0
420	410	0
153	410	0
417	410	0
418	417	0
62	417	0
419	417	0
421	420	0
39	420	0
422	420	0
413	-662	0
-413	662	0
413	-663	0
-413	663	0
343	-350	0
-343	350	0
343	-351	0
-343	351	0
343	-416	0
-343	416	0
343	-484	0
-343	484	0
279	343	0
355	343	0
352	343	0
353	352	0
104	352	0
354	352	0
356	355	0
11	355	0
357	355	0
659	658	0
-659	-658	0
68	-614	0
-68	614	0
68	-615	0
-68	615	0
68	-656	0
-68	656	0
68	-659	0
-68	659	0
68	-661	0
-68	661	0
68	-669	0
-68	669	0
662	660	0
-662	-660	0
627	621	0
-627	-621	0
344	-626	0
-344	626	0
344	-627	0
-344	627	0
193	-257	0
-193	257	0
193	-258	0
-193	258	0
193	-328	0
-193	328	0
193	-349	0
-193	349	0
194	193	0
195	193	0
122	193	0
124	122	0
18	122	0
126	122	0
200	194	0
37	194	0
201	194	0
3	-259	0
-3	259	0
3	-260	0
-3	260	0
3	-595	0
-3	595	0
3	-620	0
-3	620	0
3	-625	0
-3	625	0
3	-665	0
-3	665	0
617	-623	0
-617	623	0
617	-624	0
-617	624	0
620	617	0
-620	-617	0
479	475	0
65	-482	0
-65	482	0
65	-483	0
-65	483	0
65	-573	0
-65	573	0
65	-576	0
-65	576	0
65	-666	0
-65	666	0
216	-261	0
-216	261	0
216	-262	0
-216	262	0
216	-329	0
-216	329	0
216	-430	0
-216	430	0
143	216	0
217	216	0
213	216	0
214	213	0
106	213	0
215	213	0
288	217	0
81	217	0
289	217	0
480	477	0
-480	-477	0
407	-480	0
-407	480	0
407	-481	0
-407	481	0
205	-411	0
-205	411	0
205	-412	0
-205	412	0
202	205	0
133	205	0
130	205	0
131	130	0
66	130	0
132	130	0
203	202	0
73	202	0
204	202	0
49	-652	0
-49	652	0
49	-653	0
-49	653	0
49	-655	0
-49	655	0
49	-670	0
-49	670	0
478	-608	0
-478	608	0
478	-609	0
-478	609	0
478	-612	0
-478	612	0
655	478	0
-655	-478	0
508	488	0
-509	489	0
-504	-498	0
-499	-503	0
510	490	0
-511	-508	0
-513	-508	0
-516	-508	0
-517	-508	0
-514	509	0
-514	-517	0
-514	-516	0
-514	-511	0
-511	-510	0
-515	-510	0
-516	-510	0
-517	-510	0
-381	-677	0
554	-677	0
381	-678	0
-554	-678	0
-678	517	0
-677	517	0
51	-463	0
-51	463	0
51	-464	0
-51	464	0
51	-526	0
-51	526	0
51	-554	0
-51	554	0
226	-405	0
-226	405	0
226	-406	0
-226	406	0
226	-473	0
-226	473	0
226	-525	0
-226	525	0
226	-572	0
-226	572	0
158	226	0
221	226	0
218	226	0
219	218	0
89	218	0
220	218	0
48	-163	0
-48	163	0
48	-164	0
-48	164	0
48	-168	0
-48	168	0
48	-174	0
-48	174	0
48	-182	0
-48	182	0
48	-185	0
-48	185	0
48	-190	0
-48	190	0
48	-220	0
-48	220	0
48	-229	0
-48	229	0
48	-232	0
-48	232	0
48	-241	0
-48	241	0
48	-246	0
-48	246	0
48	-251	0
-48	251	0
48	-254	0
-48	254	0
48	-290	0
-48	290	0
48	-293	0
-48	293	0
48	-307	0
-48	307	0
48	-368	0
-48	368	0
48	-370	0
-48	370	0
48	-374	0
-48	374	0
48	-378	0
-48	378	0
178	-180	0
-178	180	0
178	-181	0
-178	181	0
178	-219	0
-178	219	0
178	-222	0
-178	222	0
178	-228	0
-178	228	0
178	-231	0
-178	231	0
178	-234	0
-178	234	0
178	-248	0
-178	248	0
178	-250	0
-178	250	0
178	-253	0
-178	253	0
178	-292	0
-178	292	0
178	-295	0
-178	295	0
178	-298	0
-178	298	0
178	-306	0
-178	306	0
178	-309	0
-178	309	0
178	-317	0
-178	317	0
178	-364	0
-178	364	0
178	-367	0
-178	367	0
178	-369	0
-178	369	0
178	-371	0
-178	371	0
391	178	0
-391	-178	0
75	-161	0
-75	161	0
75	-162	0
-75	162	0
75	-165	0
-75	165	0
75	-167	0
-75	167	0
75	-169	0
-75	169	0
75	-173	0
-75	173	0
75	-175	0
-75	175	0
75	-184	0
-75	184	0
75	-186	0
-75	186	0
75	-189	0
-75	189	0
75	-191	0
-75	191	0
75	-225	0
-75	225	0
75	-240	0
-75	240	0
75	-242	0
-75	242	0
75	-245	0
-75	245	0
75	-303	0
-75	303	0
75	-313	0
-75	313	0
75	-373	0
-75	373	0
75	-375	0
-75	375	0
75	-377	0
-75	377	0
75	-391	0
-75	391	0
160	-170	0
-160	170	0
160	-171	0
-160	171	0
160	-176	0
-160	176	0
160	-179	0
-160	179	0
160	-187	0
-160	187	0
160	-192	0
-160	192	0
160	-223	0
-160	223	0
160	-224	0
-160	224	0
160	-235	0
-160	235	0
160	-243	0
-160	243	0
160	-249	0
-160	249	0
160	-296	0
-160	296	0
160	-299	0
-160	299	0
160	-304	0
-160	304	0
160	-310	0
-160	310	0
160	-314	0
-160	314	0
160	-318	0
-160	318	0
160	-365	0
-160	365	0
160	-372	0
-160	372	0
160	-376	0
-160	376	0
290	160	0
-290	-160	0
161	158	0
100	158	0
163	158	0
60	-384	0
-60	384	0
60	-385	0
-60	385	0
60	-386	0
-60	386	0
60	-389	0
-60	389	0
60	-394	0
-60	394	0
60	-443	0
-60	443	0
60	-448	0
-60	448	0
60	-451	0
-60	451	0
60	-455	0
-60	455	0
60	-461	0
-60	461	0
380	-382	0
-380	382	0
380	-383	0
-380	383	0
380	-388	0
-380	388	0
380	-393	0
-380	393	0
380	-442	0
-380	442	0
380	-447	0
-380	447	0
380	-450	0
-380	450	0
380	-454	0
-380	454	0
380	-459	0
-380	459	0
386	380	0
-386	-380	0
532	516	0
-583	-532	0
-441	-673	0
598	-673	0
441	-674	0
-598	-674	0
-674	583	0
-673	583	0
91	-597	0
-91	597	0
91	-598	0
-91	598	0
91	-601	0
-91	601	0
265	-326	0
-265	326	0
265	-327	0
-265	327	0
265	-444	0
-265	444	0
265	-469	0
-265	469	0
265	-471	0
-265	471	0
363	265	0
166	265	0
366	265	0
367	366	0
2	366	0
368	366	0
364	363	0
34	363	0
365	363	0
340	-585	0
-340	585	0
340	-586	0
-340	586	0
118	-263	0
-118	263	0
118	-264	0
-118	264	0
118	-339	0
-118	339	0
118	-342	0
-118	342	0
119	118	0
120	118	0
121	118	0
125	121	0
57	121	0
127	121	0
129	119	0
5	119	0
137	119	0
580	579	0
-580	-579	0
111	-255	0
-111	255	0
111	-256	0
-111	256	0
111	-580	0
-111	580	0
111	-584	0
-111	584	0
111	-594	0
-111	594	0
585	581	0
-585	-581	0
536	531	0
-536	-531	0
387	-535	0
-387	535	0
387	-536	0
-387	536	0
311	-324	0
-311	324	0
311	-325	0
-311	325	0
311	-390	0
-311	390	0
311	-472	0
-311	472	0
311	-495	0
-311	495	0
311	-524	0
-311	524	0
311	-551	0
-311	551	0
308	311	0
239	311	0
305	311	0
306	305	0
55	305	0
307	305	0
309	308	0
27	308	0
310	308	0
56	-527	0
-56	527	0
56	-528	0
-56	528	0
56	-534	0
-56	534	0
395	-396	0
-395	396	0
395	-397	0
-395	397	0
395	-533	0
-395	533	0
528	395	0
-528	-395	0
563	513	0
564	513	0
518	513	0
559	513	0
-519	514	0
-519	559	0
-519	564	0
-519	563	0
563	515	0
564	515	0
520	515	0
559	515	0
610	559	0
562	559	0
453	-561	0
-453	561	0
453	-562	0
-453	562	0
236	-546	0
-236	546	0
236	-547	0
-236	547	0
236	-571	0
-236	571	0
236	-596	0
-236	596	0
236	-643	0
-236	643	0
236	-644	0
-236	644	0
236	-647	0
-236	647	0
233	236	0
183	236	0
227	236	0
228	227	0
22	227	0
229	227	0
234	233	0
102	233	0
235	233	0
560	-610	0
-560	610	0
560	-611	0
-560	611	0
560	-613	0
-560	613	0
604	560	0
-604	-560	0
1	-603	0
-1	603	0
1	-604	0
-1	604	0
1	-631	0
-1	631	0
-457	519	0
52	-574	0
-52	574	0
52	-575	0
-52	575	0
52	-577	0
-52	577	0
52	-605	0
-52	605	0
-538	461	0
-462	537	0
-460	24	0
-25	459	0
315	-537	0
-315	537	0
315	-539	0
-315	539	0
315	-542	0
-315	542	0
315	-570	0
-315	570	0
315	-639	0
-315	639	0
315	-640	0
-315	640	0
315	-642	0
-315	642	0
315	-645	0
-315	645	0
315	-646	0
-315	646	0
315	-648	0
-315	648	0
315	-649	0
-315	649	0
247	315	0
244	315	0
312	315	0
313	312	0
41	312	0
314	312	0
245	244	0
28	244	0
246	244	0
-565	-564	0
-521	-564	0
-555	-564	0
-449	-675	0
557	-675	0
449	-676	0
-557	-676	0
-676	555	0
-675	555	0
92	-556	0
-92	556	0
92	-557	0
-92	557	0
92	-582	0
-92	582	0
237	-320	0
-237	320	0
237	-321	0
-237	321	0
237	-452	0
-237	452	0
237	-522	0
-237	522	0
237	-544	0
-237	544	0
237	-566	0
-237	566	0
237	-587	0
-237	587	0
237	-593	0
-237	593	0
238	237	0
172	237	0
230	237	0
231	230	0
63	230	0
232	230	0
298	238	0
45	238	0
299	238	0
-392	-681	0
529	-681	0
392	-682	0
-529	-682	0
-682	521	0
-681	521	0
80	-529	0
-80	529	0
80	-530	0
-80	530	0
80	-578	0
-80	578	0
80	-616	0
-80	616	0
319	-465	0
-319	465	0
319	-466	0
-319	466	0
319	-467	0
-319	467	0
319	-523	0
-319	523	0
319	-549	0
-319	549	0
319	-599	0
-319	599	0
319	-602	0
-319	602	0
316	319	0
188	319	0
252	319	0
253	252	0
19	252	0
254	252	0
317	316	0
83	316	0
318	316	0
-446	-671	0
607	-671	0
446	-672	0
-607	-672	0
-672	565	0
-671	565	0
98	-606	0
-98	606	0
98	-607	0
-98	607	0
98	-618	0
-98	618	0
98	-619	0
-98	619	0
297	-567	0
-297	567	0
297	-568	0
-297	568	0
297	-569	0
-297	569	0
297	-591	0
-297	591	0
297	-638	0
-297	638	0
297	-641	0
-297	641	0
297	-664	0
-297	664	0
294	297	0
159	297	0
291	297	0
292	291	0
103	291	0
293	291	0
295	294	0
46	294	0
296	294	0
558	563	0
603	563	0
561	558	0
-561	-558	0
-379	-683	0
512	-683	0
379	-684	0
-512	-684	0
-684	511	0
-683	511	0
69	-322	0
-69	322	0
69	-323	0
-69	323	0
69	-512	0
-69	512	0
69	-600	0
-69	600	0
300	-398	0
-300	398	0
300	-399	0
-300	399	0
300	-403	0
-300	403	0
300	-468	0
-300	468	0
300	-470	0
-300	470	0
177	300	0
301	300	0
302	300	0
303	302	0
76	302	0
304	302	0
377	301	0
78	301	0
378	301	0
-507	-503	0
-540	-503	0
497	-540	0
-497	540	0
497	-541	0
-497	541	0
497	-545	0
-497	545	0
497	-588	0
-497	588	0
497	-590	0
-497	590	0
501	497	0
-501	-497	0
105	-501	0
-105	501	0
105	-502	0
-105	502	0
105	-543	0
-105	543	0
105	-548	0
-105	548	0
105	-589	0
-105	589	0
105	-592	0
-105	592	0
445	-506	0
-445	506	0
445	-507	0
-445	507	0
38	445	0
-38	-445	0
-506	-498	0
-502	-498	0
212	-400	0
-212	400	0
212	-401	0
-212	401	0
212	-402	0
-212	402	0
212	-426	0
-212	426	0
209	212	0
148	212	0
206	212	0
207	206	0
8	206	0
208	206	0
210	209	0
32	209	0
211	209	0
-114	-692	0
112	-692	0
114	-693	0
-112	-693	0
-693	691	0
-692	691	0
635	112	0
-635	-112	0
-636	113	0
637	114	0
-637	-114	0
-691	694	0
-688	694	0
687	-24	-107	0
689	117	-115	0
690	-117	115	0
-688	690	689	0
-116	115	117	0
-116	-115	-117	0
-629	628	630	0
-629	-628	-630	0
-486	633	636	0
-636	635	637	0
-636	-635	-637	0
-633	632	634	0
-633	-632	-634	0
-486	485	487	0
-486	-485	-487	0
685	431	-494	0
686	-431	494	0
-492	686	685	0
-432	-35	-431	0
-435	-433	-431	0
433	35	431	0
435	35	431	0
433	432	431	0
435	432	431	0
474	475	476	0
624	626	476	0
621	625	476	0
-661	-660	-622	0
-663	-658	-622	0
679	436	-650	0
680	-436	650	0
-550	680	679	0
-437	-101	-436	0
-440	-438	-436	0
438	101	436	0
440	101	436	0
438	437	436	0
440	437	436	0
156	154	153	0
93	154	153	0
157	154	153	0
156	67	153	0
93	67	153	0
157	67	153	0
156	155	153	0
93	155	153	0
157	155	153	0
-414	-31	-413	0
-416	-415	-413	0
415	31	413	0
416	31	413	0
415	414	413	0
416	414	413	0
282	280	279	0
82	280	279	0
283	280	279	0
282	74	279	0
82	74	279	0
283	74	279	0
282	281	279	0
82	281	279	0
283	281	279	0
-346	-36	-344	0
-349	-348	-344	0
348	36	344	0
349	36	344	0
348	346	344	0
349	346	344	0
198	196	195	0
54	196	195	0
199	196	195	0
198	86	195	0
54	86	195	0
199	86	195	0
198	197	195	0
54	197	195	0
199	197	195	0
608	481	475	0
477	652	475	0
483	427	479	0
-483	-427	479	0
-483	427	-479	0
483	-427	-479	0
-428	-85	-427	0
-430	-429	-427	0
429	85	427	0
430	85	427	0
429	428	427	0
430	428	427	0
146	144	143	0
14	144	143	0
147	144	143	0
146	16	143	0
14	16	143	0
147	16	143	0
146	145	143	0
14	145	143	0
147	145	143	0
-408	-42	-407	0
-411	-409	-407	0
409	42	407	0
411	42	407	0
409	408	407	0
411	408	407	0
136	135	133	0
13	135	133	0
138	135	133	0
136	99	133	0
13	99	133	0
138	99	133	0
136	134	133	0
13	134	133	0
138	134	133	0
503	498	488	0
-508	-498	-488	0
-508	-503	-488	0
-504	-505	510	0
-504	-503	508	0
-504	508	510	0
-499	-500	510	0
-499	-498	508	0
-499	508	510	0
-509	503	498	0
-489	488	490	0
-489	-488	-490	0
503	498	490	0
-510	-498	-490	0
-510	-503	-490	0
-509	508	510	0
-509	-508	-510	0
677	381	-554	0
678	-381	554	0
-517	678	677	0
-383	-17	-381	0
-405	-385	-381	0
385	17	381	0
405	17	381	0
385	383	381	0
405	383	381	0
-225	-224	-221	0
224	222	221	0
225	222	221	0
224	40	221	0
225	40	221	0
224	223	221	0
225	223	221	0
533	535	516	0
531	534	516	0
-584	-581	-532	0
-586	-579	-532	0
673	441	-598	0
674	-441	598	0
-583	674	673	0
-442	-87	-441	0
-444	-443	-441	0
443	87	441	0
444	87	441	0
443	442	441	0
444	442	441	0
169	167	166	0
94	167	166	0
171	167	166	0
169	21	166	0
94	21	166	0
171	21	166	0
169	168	166	0
94	168	166	0
171	168	166	0
-345	-95	-340	0
-342	-347	-340	0
347	95	340	0
342	95	340	0
347	345	340	0
342	345	340	0
141	139	120	0
61	139	120	0
142	139	120	0
141	7	120	0
61	7	120	0
142	7	120	0
141	140	120	0
61	140	120	0
142	140	120	0
-388	-107	-387	0
-390	-389	-387	0
389	107	387	0
390	107	387	0
389	388	387	0
390	388	387	0
242	240	239	0
47	240	239	0
243	240	239	0
242	15	239	0
47	15	239	0
243	15	239	0
242	241	239	0
47	241	239	0
243	241	239	0
-514	513	515	0
-514	-513	-515	0
-559	-610	-562	0
-454	-59	-453	0
-546	-455	-453	0
455	59	453	0
546	59	453	0
455	454	453	0
546	454	453	0
186	184	183	0
58	184	183	0
187	184	183	0
186	10	183	0
58	10	183	0
187	10	183	0
186	185	183	0
58	185	183	0
187	185	183	0
574	456	518	0
-574	-456	518	0
-574	456	-518	0
574	-456	-518	0
-519	518	520	0
-519	-518	-520	0
574	458	520	0
-574	-458	520	0
-574	458	-520	0
574	-458	-520	0
-459	-24	-456	0
-537	-461	-456	0
461	24	456	0
537	24	456	0
461	459	456	0
537	459	456	0
-538	-459	-24	0
-462	-459	-24	0
-460	-537	-461	0
-25	-537	-461	0
-457	456	458	0
-457	-456	-458	0
-459	-26	-458	0
-537	-461	-458	0
461	26	458	0
537	26	458	0
461	459	458	0
537	459	458	0
250	248	247	0
20	248	247	0
251	248	247	0
250	64	247	0
20	64	247	0
251	64	247	0
250	249	247	0
20	249	247	0
251	249	247	0
675	449	-557	0
676	-449	557	0
-555	676	675	0
-450	-33	-449	0
-452	-451	-449	0
451	33	449	0
452	33	449	0
451	450	449	0
452	450	449	0
175	173	172	0
53	173	172	0
176	173	172	0
175	12	172	0
53	12	172	0
176	12	172	0
175	174	172	0
53	174	172	0
176	174	172	0
681	392	-529	0
682	-392	529	0
-521	682	681	0
-393	-4	-392	0
-465	-394	-392	0
394	4	392	0
465	4	392	0
394	393	392	0
465	393	392	0
191	189	188	0
70	189	188	0
192	189	188	0
191	97	188	0
70	97	188	0
192	97	188	0
191	190	188	0
70	190	188	0
192	190	188	0
671	446	-607	0
672	-446	607	0
-565	672	671	0
-447	-9	-446	0
-567	-448	-446	0
448	9	446	0
567	9	446	0
448	447	446	0
567	447	446	0
165	162	159	0
6	162	159	0
170	162	159	0
165	29	159	0
6	29	159	0
170	29	159	0
165	164	159	0
6	164	159	0
170	164	159	0
-563	-558	-603	0
683	379	-512	0
684	-379	512	0
-511	684	683	0
-382	-43	-379	0
-398	-384	-379	0
384	43	379	0
398	43	379	0
384	382	379	0
398	382	379	0
181	180	177	0
72	180	177	0
182	180	177	0
181	84	177	0
72	84	177	0
182	84	177	0
181	179	177	0
72	179	177	0
182	179	177	0
503	507	540	0
498	506	502	0
-424	-71	-423	0
-426	-425	-423	0
425	71	423	0
426	71	423	0
425	424	423	0
426	424	423	0
151	149	148	0
88	149	148	0
152	149	148	0
151	96	148	0
88	96	148	0
152	96	148	0
151	150	148	0
88	150	148	0
152	150	148	0
692	114	-112	0
693	-114	112	0
-691	693	692	0
-113	112	114	0
-113	-112	-114	0
-694	691	688	0
-274	-277	-110	-278	0
-269	-270	-30	-271	0
-266	-267	-79	-268	0
-273	-275	-109	-276	0
-622	-625	-626	-476	0
-622	-621	-626	-476	0
-622	-625	-624	-476	0
-622	-621	-624	-476	0
550	658	660	622	0
550	663	660	622	0
550	658	661	622	0
550	663	661	622	0
-410	-420	-153	-417	0
-417	-418	-62	-419	0
-155	-67	-154	-153	0
-157	-93	-156	-153	0
-420	-421	-39	-422	0
-343	-279	-355	-352	0
-352	-353	-104	-354	0
-355	-356	-11	-357	0
-281	-74	-280	-279	0
-283	-82	-282	-279	0
-193	-194	-195	-122	0
-122	-124	-18	-126	0
-197	-86	-196	-195	0
-199	-54	-198	-195	0
-194	-200	-37	-201	0
-479	-652	-481	-475	0
-479	-477	-481	-475	0
-479	-652	-608	-475	0
-479	-477	-608	-475	0
-216	-143	-217	-213	0
-213	-214	-106	-215	0
-217	-288	-81	-289	0
-145	-16	-144	-143	0
-147	-14	-146	-143	0
-205	-202	-133	-130	0
-130	-131	-66	-132	0
-134	-99	-135	-133	0
-138	-13	-136	-133	0
-202	-203	-73	-204	0
-226	-158	-221	-218	0
-218	-219	-89	-220	0
-223	-40	-222	-221	0
-158	-161	-100	-163	0
-532	-534	-535	-516	0
-532	-531	-535	-516	0
-532	-534	-533	-516	0
-532	-531	-533	-516	0
583	579	581	532	0
583	586	581	532	0
583	579	584	532	0
583	586	584	532	0
-265	-363	-166	-366	0
-366	-367	-2	-368	0
-168	-21	-167	-166	0
-171	-94	-169	-166	0
-363	-364	-34	-365	0
-118	-119	-120	-121	0
-121	-125	-57	-127	0
-140	-7	-139	-120	0
-142	-61	-141	-120	0
-119	-129	-5	-137	0
-311	-308	-239	-305	0
-305	-306	-55	-307	0
-241	-15	-240	-239	0
-243	-47	-242	-239	0
-308	-309	-27	-310	0
-236	-233	-183	-227	0
-227	-228	-22	-229	0
-185	-10	-184	-183	0
-187	-58	-186	-183	0
-233	-234	-102	-235	0
-315	-247	-244	-312	0
-312	-313	-41	-314	0
-244	-245	-28	-246	0
-249	-64	-248	-247	0
-251	-20	-250	-247	0
564	565	521	555	0
-237	-238	-172	-230	0
-230	-231	-63	-232	0
-174	-12	-173	-172	0
-176	-53	-175	-172	0
-238	-298	-45	-299	0
-319	-316	-188	-252	0
-252	-253	-19	-254	0
-190	-97	-189	-188	0
-192	-70	-191	-188	0
-316	-317	-83	-318	0
-297	-294	-159	-291	0
-291	-292	-103	-293	0
-164	-29	-162	-159	0
-170	-6	-165	-159	0
-294	-295	-46	-296	0
-300	-177	-301	-302	0
-302	-303	-76	-304	0
-301	-377	-78	-378	0
-179	-84	-180	-177	0
-182	-72	-181	-177	0
-212	-209	-148	-206	0
-206	-207	-8	-208	0
-150	-96	-149	-148	0
-152	-88	-151	-148	0
-209	-210	-32	-211	0
485	423	488	491	492	0
487	423	490	491	492	0
-272	-273	-266	-269	-274	0
508	511	513	516	517	0
510	511	515	516	517	0
-513	-563	-564	-518	-559	0
-515	-563	-564	-520	-559	0
